1 -1 -2 0
1 3 -2 0
1 4 -5 0
1 -4 6 0
1 4 7 0
1 -4 3 0
1 -2 8 0
1 -2 1 0
1 -2 -9 0
1 -2 -10 0
1 11 6 0
1 9 12 0
1 -7 13 0
1 -7 14 0
1 -5 -15 0
1 -5 -4 0
1 5 7 0
1 16 12 0
1 -16 17 0
1 16 -18 0
1 12 18 0
1 12 7 0
1 12 -9 0
1 -19 20 0
1 -19 -14 0
1 21 14 0
1 -13 -22 0
1 23 -22 0
1 23 -24 0
1 25 3 0
1 26 -27 0
1 -26 -28 0
1 27 -29 0
1 30 26 0
1 31 32 0
1 -33 29 0
1 -34 35 0
1 -36 37 0
1 32 38 0
1 -6 36 0
1 20 12 0
1 -20 -39 0
1 20 -40 0
1 -20 -19 0
1 37 41 0
1 -42 -43 0
1 -42 44 0
1 39 45 0
1 -39 34 0
1 46 -47 0
1 -46 -43 0
1 18 12 0
1 18 44 0
1 -44 -40 0
1 48 -13 0
1 -48 -49 0
1 -24 -50 0
1 40 -41 0
1 40 48 0
1 41 -18 0
1 -51 -52 0
1 49 53 0
1 49 -45 0
1 49 -20 0
1 54 -41 0
1 -55 -40 0
1 55 -13 0
1 -56 -57 0
1 58 -56 0
1 -59 -48 0
1 60 58 0
1 60 24 0
1 57 61 0
1 57 -56 0
1 -50 12 0
1 50 -62 0
1 -50 56 0
1 50 48 0
1 50 -63 0
1 -50 -64 0
1 -65 60 0
1 -65 -66 0
1 -66 -67 0
1 66 -58 0
1 -68 -15 0
1 -68 -56 0
1 69 -70 0
1 -69 61 0
1 71 72 0
1 -71 73 0
1 -74 75 0
1 -74 -76 0
1 -77 -74 0
1 77 -78 0
1 77 -73 0
1 77 -71 0
1 79 -80 0
1 79 -75 0
1 81 -82 0
1 -81 -83 0
1 84 -31 0
1 -78 85 0
1 86 77 0
1 86 74 0
1 86 87 0
1 -86 88 0
1 76 -89 0
1 -76 -90 0
1 -76 -91 0
1 87 -72 0
1 -87 -73 0
1 -87 -92 0
1 -87 71 0
1 -72 -93 0
1 94 -95 0
1 -94 -30 0
1 -96 97 0
1 -96 -95 0
1 -98 97 0
1 98 90 0
1 -99 98 0
1 -100 -96 0
1 -95 100 0
1 -95 101 0
1 88 102 0
1 90 -76 0
1 47 -95 0
1 -103 95 0
1 -104 -105 0
1 -106 107 0
1 -106 -108 0
1 -109 -110 0
1 -109 -111 0
1 112 108 0
1 -45 -46 0
1 -43 113 0
1 43 42 0
1 107 -114 0
1 -107 115 0
1 -107 -116 0
1 -116 117 0
1 105 35 0
1 -115 118 0
1 119 -43 0
1 117 -120 0
1 -117 116 0
1 -53 -105 0
1 -121 41 0
1 -121 122 0
1 121 -123 0
1 62 -124 0
1 122 125 0
1 122 63 0
1 126 -61 0
1 -114 127 0
1 -123 -127 0
1 123 -114 0
1 -123 -116 0
1 -61 69 0
1 70 -128 0
1 -70 -129 0
1 -130 -70 0
1 -130 122 0
1 -124 -61 0
1 -124 130 0
1 -124 -131 0
1 -132 -129 0
1 -131 133 0
1 134 -135 0
1 129 136 0
1 129 -132 0
1 137 -67 0
1 128 -132 0
1 128 -138 0
1 -139 133 0
1 136 -137 0
1 140 -131 0
1 133 -141 0
1 -142 -143 0
1 144 -145 0
1 144 -134 0
1 146 -147 0
1 148 -149 0
1 -148 -150 0
1 148 -151 0
1 152 153 0
1 -152 154 0
1 152 150 0
1 155 -146 0
1 155 -156 0
1 -155 151 0
1 85 157 0
1 -158 159 0
1 160 161 0
1 -160 -159 0
1 -162 163 0
1 -162 -164 0
1 -161 -164 0
1 -161 -165 0
1 -161 -160 0
1 -157 -158 0
1 75 -72 0
1 -93 166 0
1 -93 -98 0
1 166 72 0
1 -166 167 0
1 168 160 0
1 168 169 0
1 168 -170 0
1 -171 -172 0
1 167 173 0
1 -174 175 0
1 174 75 0
1 -92 -171 0
1 92 -176 0
1 -177 178 0
1 -177 80 0
1 -177 -176 0
1 -172 -80 0
1 -176 92 0
1 176 -74 0
1 179 -177 0
1 179 -111 0
1 -178 -93 0
1 -101 -112 0
1 101 -88 0
1 -180 109 0
1 -111 -109 0
1 111 181 0
1 -111 116 0
1 111 182 0
1 182 -180 0
1 181 -72 0
1 -181 183 0
1 184 109 0
1 184 -185 0
1 -184 -112 0
1 186 187 0
1 -188 -189 0
1 -190 191 0
1 -102 192 0
1 102 -193 0
1 102 194 0
1 -102 111 0
1 -120 190 0
1 -195 118 0
1 196 -197 0
1 196 189 0
1 196 198 0
1 189 -186 0
1 187 -196 0
1 199 187 0
1 -199 112 0
1 -200 52 0
1 201 197 0
1 -202 -203 0
1 -202 -52 0
1 -202 -131 0
1 135 -203 0
1 -135 204 0
1 118 -197 0
1 118 -135 0
1 118 -205 0
1 -206 207 0
1 -206 -208 0
1 206 209 0
1 138 -210 0
1 138 211 0
1 212 -197 0
1 -212 -124 0
1 212 -128 0
1 212 213 0
1 214 204 0
1 214 -215 0
1 -211 216 0
1 216 217 0
1 -216 -218 0
1 216 219 0
1 220 -221 0
1 222 -142 0
1 -223 -224 0
1 221 225 0
1 221 226 0
1 -227 228 0
1 -227 -229 0
1 -230 225 0
1 -230 227 0
1 224 -223 0
1 -224 228 0
1 -224 231 0
1 -224 232 0
1 -232 230 0
1 -228 233 0
1 234 -235 0
1 234 236 0
1 -234 128 0
1 -237 -222 0
1 -238 239 0
1 238 -240 0
1 238 -241 0
1 -240 -228 0
1 -242 -239 0
1 -243 238 0
1 243 -224 0
1 -239 244 0
1 -241 -142 0
1 -245 -246 0
1 -245 -241 0
1 -247 248 0
1 247 -249 0
1 250 251 0
1 -250 252 0
1 -253 254 0
1 253 -255 0
1 256 257 0
1 -256 -258 0
1 -256 -259 0
1 -251 -256 0
1 260 -155 0
1 -153 -261 0
1 -153 255 0
1 -153 -248 0
1 262 263 0
1 264 265 0
1 -266 -149 0
1 -267 -257 0
1 267 -268 0
1 269 250 0
1 -269 268 0
1 -269 -260 0
1 156 -157 0
1 -149 -270 0
1 -271 272 0
1 270 262 0
1 265 271 0
1 -272 -273 0
1 -274 92 0
1 274 -275 0
1 -164 270 0
1 -164 -161 0
1 -276 265 0
1 -173 163 0
1 277 278 0
1 277 279 0
1 -280 173 0
1 280 281 0
1 282 276 0
1 283 284 0
1 283 -155 0
1 285 -178 0
1 285 286 0
1 -279 174 0
1 -279 -168 0
1 -279 -80 0
1 287 110 0
1 287 -288 0
1 -287 80 0
1 -288 -287 0
1 -288 -276 0
1 289 -287 0
1 -290 291 0
1 290 -276 0
1 292 181 0
1 -292 293 0
1 -294 -169 0
1 -294 278 0
1 -295 -296 0
1 295 293 0
1 169 -297 0
1 -298 -183 0
1 293 167 0
1 175 -299 0
1 -175 -183 0
1 -193 300 0
1 -193 -102 0
1 -192 -301 0
1 302 303 0
1 300 297 0
1 -300 -176 0
1 304 -297 0
1 -296 305 0
1 -306 -307 0
1 191 308 0
1 -191 185 0
1 -309 -187 0
1 309 -310 0
1 311 187 0
1 -311 310 0
1 -311 312 0
1 313 -314 0
1 -313 -187 0
1 313 315 0
1 316 308 0
1 316 -313 0
1 308 -311 0
1 -308 192 0
1 308 317 0
1 -308 -302 0
1 301 313 0
1 -301 -309 0
1 -310 192 0
1 -310 -313 0
1 310 318 0
1 -208 -315 0
1 -315 311 0
1 315 -319 0
1 -312 320 0
1 312 -321 0
1 -219 -322 0
1 -323 -324 0
1 -325 319 0
1 -326 -327 0
1 -326 322 0
1 -322 -225 0
1 324 -327 0
1 -324 -328 0
1 324 329 0
1 324 330 0
1 -330 325 0
1 330 324 0
1 330 -321 0
1 331 332 0
1 225 329 0
1 333 -334 0
1 -332 231 0
1 -335 -331 0
1 336 337 0
1 -338 -234 0
1 -334 -339 0
1 -334 340 0
1 -340 341 0
1 -342 -343 0
1 -344 -345 0
1 345 338 0
1 -345 346 0
1 345 -334 0
1 347 -339 0
1 348 -349 0
1 -246 -350 0
1 349 351 0
1 349 -236 0
1 349 -334 0
1 349 -340 0
1 -352 353 0
1 -352 354 0
1 352 349 0
1 355 356 0
1 357 -233 0
1 357 -244 0
1 -357 356 0
1 233 358 0
1 359 234 0
1 -360 -361 0
1 -362 -363 0
1 -244 -364 0
1 244 365 0
1 366 367 0
1 -366 -368 0
1 249 -247 0
1 252 -369 0
1 -252 370 0
1 263 262 0
1 258 264 0
1 258 -371 0
1 372 373 0
1 370 374 0
1 375 -376 0
1 -375 377 0
1 375 -378 0
1 268 -370 0
1 -268 -379 0
1 257 371 0
1 -374 -370 0
1 -374 -380 0
1 381 165 0
1 -379 -382 0
1 -379 -258 0
1 -379 383 0
1 -379 273 0
1 371 384 0
1 275 -248 0
1 275 385 0
1 386 -383 0
1 -386 -379 0
1 273 -382 0
1 -273 -387 0
1 -387 382 0
1 387 -386 0
1 -385 -384 0
1 385 -374 0
1 388 -384 0
1 388 -275 0
1 389 -390 0
1 389 391 0
1 -389 -392 0
1 -389 -282 0
1 393 394 0
1 395 -396 0
1 -391 266 0
1 -391 -397 0
1 391 -395 0
1 396 -398 0
1 396 273 0
1 -396 399 0
1 -396 389 0
1 390 400 0
1 -390 -401 0
1 390 395 0
1 -402 -403 0
1 -402 -400 0
1 397 278 0
1 278 280 0
1 398 404 0
1 -398 -405 0
1 405 299 0
1 405 -270 0
1 405 393 0
1 394 -406 0
1 -404 407 0
1 407 401 0
1 408 289 0
1 299 -409 0
1 410 411 0
1 -410 175 0
1 -410 394 0
1 -412 -307 0
1 -412 408 0
1 413 414 0
1 -413 -299 0
1 -284 -291 0
1 284 415 0
1 -284 -410 0
1 -284 -399 0
1 -284 -283 0
1 -416 -306 0
1 416 417 0
1 305 -418 0
1 305 412 0
1 -305 -409 0
1 419 -417 0
1 -420 -305 0
1 -420 288 0
1 -417 -416 0
1 417 -421 0
1 -417 -419 0
1 409 410 0
1 422 -423 0
1 422 301 0
1 -424 -411 0
1 424 -420 0
1 -425 175 0
1 425 426 0
1 -425 -318 0
1 317 427 0
1 -317 301 0
1 320 -427 0
1 -320 -428 0
1 320 -429 0
1 430 -325 0
1 -430 431 0
1 430 432 0
1 -433 328 0
1 -433 434 0
1 433 -435 0
1 434 -328 0
1 434 436 0
1 432 436 0
1 -432 -320 0
1 -432 -318 0
1 -435 -437 0
1 435 -315 0
1 -329 -435 0
1 438 439 0
1 440 429 0
1 437 310 0
1 437 441 0
1 -442 -327 0
1 442 322 0
1 442 -429 0
1 443 429 0
1 -443 -439 0
1 -341 444 0
1 445 443 0
1 445 -442 0
1 -446 -447 0
1 -446 442 0
1 448 328 0
1 439 448 0
1 439 -328 0
1 -439 -449 0
1 -439 -341 0
1 450 -347 0
1 -451 447 0
1 -451 -443 0
1 444 324 0
1 452 453 0
1 -354 454 0
1 354 -342 0
1 -354 -350 0
1 -343 455 0
1 -343 -345 0
1 -456 -451 0
1 -456 349 0
1 454 457 0
1 458 343 0
1 -458 -459 0
1 460 -461 0
1 462 353 0
1 463 456 0
1 463 -464 0
1 -463 -342 0
1 465 -466 0
1 -467 -456 0
1 -467 -468 0
1 -467 -469 0
1 467 470 0
1 471 -351 0
1 471 -472 0
1 -471 473 0
1 358 -463 0
1 -358 474 0
1 464 -360 0
1 464 475 0
1 476 477 0
1 -476 -478 0
1 476 465 0
1 -476 -470 0
1 479 468 0
1 -474 480 0
1 481 365 0
1 -475 349 0
1 -482 481 0
1 482 483 0
1 -482 -484 0
1 -482 -485 0
1 486 -487 0
1 486 488 0
1 489 -490 0
1 489 480 0
1 -477 491 0
1 492 483 0
1 -493 494 0
1 -488 -486 0
1 -488 485 0
1 487 484 0
1 485 487 0
1 485 -495 0
1 -485 496 0
1 -483 -493 0
1 483 480 0
1 -483 484 0
1 -483 497 0
1 483 496 0
1 -484 -498 0
1 484 491 0
1 -499 -500 0
1 -501 502 0
1 -501 -503 0
1 504 -501 0
1 -505 -506 0
1 -505 507 0
1 508 -509 0
1 -510 511 0
1 -512 369 0
1 512 -513 0
1 -512 -502 0
1 -512 514 0
1 -513 505 0
1 502 515 0
1 -502 -516 0
1 517 -503 0
1 503 -512 0
1 -518 -375 0
1 518 -268 0
1 518 -519 0
1 -515 -376 0
1 515 506 0
1 515 -514 0
1 377 376 0
1 -514 520 0
1 514 -373 0
1 514 521 0
1 -514 -380 0
1 514 -518 0
1 -522 -377 0
1 -519 -515 0
1 -378 -375 0
1 378 371 0
1 521 -523 0
1 523 -384 0
1 -523 524 0
1 -523 378 0
1 -525 373 0
1 526 377 0
1 -527 528 0
1 527 529 0
1 -527 385 0
1 384 530 0
1 -384 -371 0
1 -531 -532 0
1 -531 -530 0
1 -533 -534 0
1 -530 -535 0
1 -530 -372 0
1 -530 -536 0
1 537 535 0
1 537 403 0
1 -538 -539 0
1 538 -531 0
1 -538 540 0
1 -400 397 0
1 -536 -254 0
1 541 -390 0
1 -541 -542 0
1 541 402 0
1 -534 -379 0
1 -534 400 0
1 534 -533 0
1 532 543 0
1 -532 531 0
1 532 -401 0
1 -544 535 0
1 -544 -545 0
1 -544 541 0
1 -542 -531 0
1 -543 -546 0
1 -543 -534 0
1 -547 -548 0
1 547 -549 0
1 -550 551 0
1 -550 552 0
1 -550 547 0
1 550 -553 0
1 548 -554 0
1 548 551 0
1 555 -546 0
1 555 -554 0
1 -555 -547 0
1 555 388 0
1 551 -405 0
1 551 549 0
1 -406 405 0
1 -406 -548 0
1 406 556 0
1 418 -557 0
1 418 558 0
1 418 549 0
1 557 -559 0
1 549 560 0
1 558 -547 0
1 558 561 0
1 414 549 0
1 -414 562 0
1 421 424 0
1 -421 -563 0
1 564 -436 0
1 564 -409 0
1 -563 -565 0
1 563 -394 0
1 -566 -567 0
1 -566 568 0
1 562 569 0
1 562 -561 0
1 -570 417 0
1 -570 -571 0
1 565 -572 0
1 573 423 0
1 -426 -572 0
1 -426 563 0
1 574 575 0
1 574 -573 0
1 -576 565 0
1 576 574 0
1 572 -570 0
1 -577 -578 0
1 579 -580 0
1 -575 580 0
1 575 -574 0
1 581 -576 0
1 -582 583 0
1 584 -420 0
1 580 585 0
1 580 575 0
1 580 441 0
1 -586 -582 0
1 -583 579 0
1 -587 588 0
1 589 -431 0
1 590 -588 0
1 590 585 0
1 590 -591 0
1 592 -590 0
1 -593 594 0
1 595 593 0
1 -449 -596 0
1 -449 597 0
1 598 -599 0
1 598 600 0
1 -598 -601 0
1 -597 -595 0
1 597 602 0
1 603 -453 0
1 603 -597 0
1 604 -605 0
1 -604 -595 0
1 -606 445 0
1 606 444 0
1 -607 -608 0
1 -607 -609 0
1 -610 611 0
1 610 -598 0
1 -609 612 0
1 -609 -453 0
1 609 -594 0
1 -613 -614 0
1 613 437 0
1 -613 609 0
1 615 460 0
1 616 615 0
1 616 608 0
1 617 596 0
1 617 -618 0
1 617 -608 0
1 -619 617 0
1 -619 -608 0
1 -620 -461 0
1 -620 -470 0
1 608 461 0
1 621 -622 0
1 -461 -623 0
1 461 -454 0
1 -461 -624 0
1 -468 625 0
1 -468 -471 0
1 -626 -627 0
1 628 629 0
1 -630 622 0
1 -630 470 0
1 631 -622 0
1 631 -461 0
1 631 632 0
1 -469 626 0
1 469 -471 0
1 472 -622 0
1 633 -627 0
1 634 -635 0
1 -634 636 0
1 634 627 0
1 -634 470 0
1 -637 634 0
1 -637 -627 0
1 -638 -639 0
1 -640 -639 0
1 636 490 0
1 -636 -641 0
1 490 642 0
1 -643 644 0
1 643 -463 0
1 643 636 0
1 466 498 0
1 -466 -645 0
1 -641 646 0
1 -647 -646 0
1 -491 -477 0
1 -491 497 0
1 -648 642 0
1 498 -648 0
1 -649 650 0
1 651 -496 0
1 642 652 0
1 642 497 0
1 642 -653 0
1 -495 649 0
1 496 483 0
1 654 -651 0
1 654 655 0
1 654 -656 0
1 -657 658 0
1 659 658 0
1 -660 -661 0
1 662 663 0
1 664 665 0
1 664 -666 0
1 -667 668 0
1 -667 -669 0
1 670 668 0
1 -670 -669 0
1 -670 656 0
1 665 658 0
1 -665 -668 0
1 665 -664 0
1 665 671 0
1 -672 673 0
1 -672 674 0
1 -675 -674 0
1 676 -677 0
1 -511 -678 0
1 -511 -676 0
1 677 679 0
1 680 681 0
1 -682 -683 0
1 -682 679 0
1 -684 -682 0
1 685 506 0
1 -686 680 0
1 -678 -675 0
1 509 681 0
1 509 683 0
1 687 -688 0
1 689 683 0
1 -689 688 0
1 -681 683 0
1 683 -690 0
1 -691 -692 0
1 -691 689 0
1 693 687 0
1 516 378 0
1 694 -681 0
1 694 695 0
1 694 696 0
1 697 698 0
1 -697 699 0
1 697 687 0
1 -507 -700 0
1 507 -689 0
1 -507 697 0
1 -701 702 0
1 -701 690 0
1 701 -687 0
1 -688 700 0
1 -688 -701 0
1 -688 -679 0
1 -688 -687 0
1 529 520 0
1 -529 -695 0
1 520 522 0
1 520 703 0
1 -698 697 0
1 698 696 0
1 -696 -520 0
1 -696 704 0
1 696 -705 0
1 -696 698 0
1 -696 -529 0
1 695 -704 0
1 -706 -707 0
1 706 -708 0
1 524 -400 0
1 524 -696 0
1 -524 523 0
1 -709 710 0
1 709 -711 0
1 705 -712 0
1 705 713 0
1 -714 -715 0
1 -712 -705 0
1 -712 698 0
1 716 704 0
1 -717 519 0
1 -717 -718 0
1 -535 712 0
1 535 -719 0
1 545 -713 0
1 545 -720 0
1 721 -722 0
1 723 722 0
1 -724 725 0
1 724 -719 0
1 724 -705 0
1 724 726 0
1 -724 -545 0
1 -719 705 0
1 -713 -727 0
1 728 -725 0
1 -728 -729 0
1 730 -542 0
1 730 -722 0
1 -730 534 0
1 -556 -719 0
1 731 -719 0
1 -732 724 0
1 722 554 0
1 722 -733 0
1 734 731 0
1 -734 -735 0
1 -734 736 0
1 734 -733 0
1 737 -738 0
1 736 -564 0
1 -736 733 0
1 -738 733 0
1 -739 737 0
1 -740 554 0
1 -740 -741 0
1 -742 -743 0
1 742 744 0
1 -567 -745 0
1 -567 -738 0
1 746 -747 0
1 746 -733 0
1 748 -736 0
1 748 -741 0
1 749 750 0
1 751 -752 0
1 -753 754 0
1 -753 755 0
1 -753 752 0
1 -753 -756 0
1 750 -753 0
1 -750 -567 0
1 750 -751 0
1 757 -758 0
1 752 -759 0
1 752 760 0
1 -578 -577 0
1 761 -745 0
1 756 -755 0
1 -569 -762 0
1 569 -562 0
1 569 -763 0
1 764 -580 0
1 601 590 0
1 -765 766 0
1 -767 766 0
1 -768 761 0
1 768 764 0
1 -766 589 0
1 605 -769 0
1 -770 769 0
1 -770 -771 0
1 -769 -612 0
1 -772 -580 0
1 772 -612 0
1 -773 -774 0
1 773 -605 0
1 -775 -776 0
1 -775 601 0
1 -777 778 0
1 612 -779 0
1 -612 780 0
1 612 609 0
1 781 782 0
1 -780 611 0
1 -780 -783 0
1 780 612 0
1 -780 -770 0
1 -780 784 0
1 785 611 0
1 -785 614 0
1 785 -786 0
1 785 -787 0
1 -771 788 0
1 778 -614 0
1 778 -612 0
1 624 -780 0
1 789 782 0
1 625 468 0
1 -625 790 0
1 -791 792 0
1 632 -620 0
1 622 791 0
1 -622 618 0
1 793 794 0
1 -794 -795 0
1 -794 -602 0
1 796 797 0
1 796 -625 0
1 796 -639 0
1 798 -622 0
1 -798 799 0
1 -800 -789 0
1 800 801 0
1 -800 -802 0
1 803 789 0
1 -803 801 0
1 -797 -804 0
1 -797 805 0
1 806 804 0
1 806 -807 0
1 -806 640 0
1 808 -635 0
1 804 793 0
1 635 807 0
1 635 -809 0
1 810 -811 0
1 812 -813 0
1 -811 812 0
1 811 810 0
1 -811 -814 0
1 813 815 0
1 816 810 0
1 -652 -647 0
1 -644 -811 0
1 -817 -818 0
1 -817 819 0
1 -817 -820 0
1 -820 -644 0
1 -820 -821 0
1 820 822 0
1 -823 824 0
1 825 826 0
1 666 -827 0
1 666 -828 0
1 666 -660 0
1 650 829 0
1 -830 -818 0
1 830 831 0
1 -663 832 0
1 663 830 0
1 663 -833 0
1 -828 818 0
1 828 -830 0
1 -827 834 0
1 827 -666 0
1 -827 650 0
1 835 -836 0
1 -658 -832 0
1 -661 -658 0
1 837 818 0
1 -838 832 0
1 -838 -653 0
1 838 839 0
1 831 -840 0
1 -831 -658 0
1 -840 841 0
1 840 -651 0
1 653 -842 0
1 -653 -843 0
1 653 -838 0
1 653 -661 0
1 -844 845 0
1 -844 -831 0
1 846 -847 0
1 846 848 0
1 849 -831 0
1 850 849 0
1 -850 845 0
1 -850 838 0
1 847 -851 0
1 -839 -852 0
1 839 853 0
1 854 841 0
1 -854 855 0
1 -855 847 0
1 855 856 0
1 -857 847 0
1 857 -858 0
1 -851 -847 0
1 -856 854 0
1 -859 846 0
1 -859 851 0
1 -859 -857 0
1 860 -846 0
1 848 -855 0
1 848 -849 0
1 861 678 0
1 -861 -516 0
1 -861 862 0
1 -692 -863 0
1 -863 -864 0
1 864 865 0
1 -864 861 0
1 866 -861 0
1 690 -865 0
1 690 867 0
1 690 863 0
1 -865 -520 0
1 -865 868 0
1 -869 -870 0
1 871 872 0
1 -868 869 0
1 868 873 0
1 -873 874 0
1 875 876 0
1 875 695 0
1 -875 -870 0
1 711 871 0
1 707 871 0
1 -707 876 0
1 707 -877 0
1 708 878 0
1 708 -867 0
1 879 -708 0
1 -876 707 0
1 -876 870 0
1 704 -874 0
1 -720 696 0
1 -880 881 0
1 -880 -882 0
1 880 883 0
1 882 -881 0
1 -884 885 0
1 -884 -720 0
1 877 -886 0
1 -878 887 0
1 888 889 0
1 -888 -688 0
1 890 -881 0
1 -890 891 0
1 -727 -892 0
1 727 877 0
1 727 893 0
1 -894 884 0
1 895 725 0
1 -895 -893 0
1 893 880 0
1 -893 895 0
1 893 894 0
1 893 -882 0
1 893 896 0
1 881 -727 0
1 -881 -890 0
1 -883 -881 0
1 725 729 0
1 -729 -897 0
1 729 719 0
1 729 895 0
1 -898 899 0
1 898 -900 0
1 898 -901 0
1 898 -902 0
1 715 -729 0
1 715 -903 0
1 897 729 0
1 897 715 0
1 -904 -729 0
1 -904 905 0
1 -744 -899 0
1 744 734 0
1 -744 -906 0
1 735 -907 0
1 -735 734 0
1 735 -742 0
1 -903 -907 0
1 -903 908 0
1 903 -743 0
1 903 -715 0
1 903 -909 0
1 -743 899 0
1 743 726 0
1 -899 -719 0
1 899 726 0
1 910 -911 0
1 910 735 0
1 907 911 0
1 -907 -735 0
1 741 908 0
1 -741 -739 0
1 741 -905 0
1 912 899 0
1 913 914 0
1 754 915 0
1 -909 916 0
1 -909 917 0
1 909 -918 0
1 919 -912 0
1 -919 902 0
1 747 -920 0
1 -747 -552 0
1 -747 917 0
1 -921 -752 0
1 -759 -917 0
1 916 922 0
1 -916 917 0
1 -916 923 0
1 924 925 0
1 924 -926 0
1 927 754 0
1 927 -739 0
1 -927 -926 0
1 927 924 0
1 927 -913 0
1 -923 928 0
1 926 929 0
1 -926 591 0
1 758 757 0
1 930 929 0
1 930 -922 0
1 -930 -931 0
1 932 -922 0
1 932 -933 0
1 -934 935 0
1 -934 926 0
1 -929 920 0
1 929 -936 0
1 929 -759 0
1 -937 -925 0
1 -937 -748 0
1 937 759 0
1 762 756 0
1 762 938 0
1 939 -922 0
1 -939 -755 0
1 939 760 0
1 -939 -605 0
1 -935 938 0
1 940 -941 0
1 942 935 0
1 942 -762 0
1 942 943 0
1 -942 944 0
1 931 945 0
1 -931 -939 0
1 -760 931 0
1 -760 -945 0
1 -779 -940 0
1 -946 775 0
1 -946 947 0
1 -943 948 0
1 943 -949 0
1 -950 951 0
1 -952 -953 0
1 -954 779 0
1 -955 769 0
1 -955 -952 0
1 956 778 0
1 -956 957 0
1 958 -959 0
1 -790 -959 0
1 -960 -961 0
1 -960 765 0
1 -948 -767 0
1 -957 -961 0
1 -957 -768 0
1 -957 943 0
1 949 -955 0
1 787 776 0
1 -787 962 0
1 787 -959 0
1 787 780 0
1 787 632 0
1 963 964 0
1 -795 960 0
1 -962 -801 0
1 -962 795 0
1 774 -965 0
1 -774 966 0
1 802 -964 0
1 -802 782 0
1 805 791 0
1 967 -962 0
1 801 968 0
1 801 -969 0
1 -801 -784 0
1 -784 -970 0
1 784 809 0
1 -788 -971 0
1 972 -802 0
1 -809 973 0
1 973 -796 0
1 973 792 0
1 973 -800 0
1 970 974 0
1 970 -784 0
1 -792 -975 0
1 -792 -976 0
1 977 978 0
1 977 -979 0
1 -977 980 0
1 976 808 0
1 976 792 0
1 976 -981 0
1 -976 982 0
1 -983 -816 0
1 -975 984 0
1 975 985 0
1 985 984 0
1 982 986 0
1 987 -975 0
1 988 975 0
1 -989 807 0
1 989 990 0
1 989 -829 0
1 829 982 0
1 829 650 0
1 -991 992 0
1 991 -825 0
1 -993 991 0
1 992 804 0
1 -992 989 0
1 -992 994 0
1 -992 -985 0
1 826 -823 0
1 822 -993 0
1 -822 -995 0
1 822 996 0
1 834 -997 0
1 814 -996 0
1 -998 991 0
1 843 996 0
1 843 -827 0
1 999 1000 0
1 -999 -814 0
1 -1001 1002 0
1 -1003 -841 0
1 841 839 0
1 -841 -1003 0
1 853 -839 0
1 -1004 -999 0
1 -1002 -1001 0
1 1002 858 0
1 836 1002 0
1 -872 871 0
1 -872 876 0
1 -1005 876 0
1 -1006 -872 0
1 -1007 866 0
1 -892 -1008 0
1 -892 1009 0
1 -892 1010 0
1 -892 889 0
1 892 1011 0
1 889 -1012 0
1 889 -1010 0
1 1009 -1013 0
1 1009 867 0
1 1014 -881 0
1 -1014 -1015 0
1 -1016 -1017 0
1 -1016 881 0
1 1018 898 0
1 1018 1013 0
1 1018 1019 0
1 -1018 -881 0
1 -1020 -1018 0
1 -1020 -1021 0
1 -1020 -881 0
1 -1021 -879 0
1 1015 -1022 0
1 -1017 1014 0
1 1017 -892 0
1 -1017 -1023 0
1 -1017 -1024 0
1 -1010 892 0
1 -1010 1025 0
1 -906 1026 0
1 906 -1015 0
1 -906 -883 0
1 1027 -1019 0
1 -1027 1015 0
1 885 -1026 0
1 886 1020 0
1 -1019 -1018 0
1 -1019 1028 0
1 -1029 -1030 0
1 905 901 0
1 1031 912 0
1 -1031 -901 0
1 -914 -911 0
1 914 1032 0
1 911 910 0
1 -1033 -914 0
1 -896 -1031 0
1 896 -1033 0
1 896 -914 0
1 1034 -726 0
1 -1034 1035 0
1 1034 919 0
1 -1036 -1037 0
1 1038 -1039 0
1 1038 -1040 0
1 1038 919 0
1 1038 -896 0
1 -1041 -1042 0
1 1043 914 0
1 -1043 1044 0
1 1037 1045 0
1 -1032 1046 0
1 1046 1047 0
1 -1048 909 0
1 928 1039 0
1 928 -915 0
1 1045 -1047 0
1 -1045 -933 0
1 -1049 1041 0
1 1042 925 0
1 1050 1051 0
1 1039 -1052 0
1 925 762 0
1 -1053 -1054 0
1 1053 927 0
1 -1053 923 0
1 -918 -1055 0
1 -918 -1053 0
1 918 933 0
1 -1056 -1057 0
1 -1056 -1054 0
1 1056 -1058 0
1 -1054 -1052 0
1 1054 -1059 0
1 1054 1060 0
1 -1061 -934 0
1 1055 -1062 0
1 -1055 -922 0
1 -1055 1061 0
1 -1055 -760 0
1 -1055 -1063 0
1 -947 -1063 0
1 -1064 1065 0
1 -1064 1066 0
1 -1066 -1062 0
1 -1066 -941 0
1 -1066 1055 0
1 1063 947 0
1 -1065 -936 0
1 1065 -1067 0
1 -1065 1068 0
1 941 -945 0
1 945 -1069 0
1 1070 -1071 0
1 -1070 -944 0
1 1072 -1067 0
1 -1073 -1072 0
1 1073 1069 0
1 -1069 1064 0
1 -1074 937 0
1 -1074 1075 0
1 953 1073 0
1 953 950 0
1 -1076 953 0
1 1076 -954 0
1 -1077 -1069 0
1 -1078 -1079 0
1 -944 -1080 0
1 944 1081 0
1 -1071 -1070 0
1 1071 1078 0
1 -1071 1076 0
1 -1082 -1083 0
1 961 -960 0
1 961 1079 0
1 -1084 -1085 0
1 -1084 -1086 0
1 1084 -1087 0
1 -968 1085 0
1 1088 1078 0
1 1088 -966 0
1 -1089 1090 0
1 1089 -1084 0
1 -1079 1091 0
1 -1079 -1089 0
1 1079 1090 0
1 -971 973 0
1 -971 1092 0
1 1093 1094 0
1 -1093 -788 0
1 1095 1096 0
1 1095 -788 0
1 -1085 -979 0
1 1085 -1097 0
1 -1085 1084 0
1 1098 957 0
1 -1087 1099 0
1 981 972 0
1 -981 -788 0
1 -979 -969 0
1 -979 1100 0
1 1101 1102 0
1 -1101 -1100 0
1 978 -1094 0
1 978 -1103 0
1 -978 -977 0
1 -1100 -978 0
1 1100 -1095 0
1 -1100 -981 0
1 1100 -1093 0
1 1094 1093 0
1 1096 -1104 0
1 1105 776 0
1 -990 984 0
1 1106 -987 0
1 -1106 -829 0
1 -1107 -1108 0
1 1107 1109 0
1 -1110 1111 0
1 1103 -1107 0
1 1102 -1112 0
1 1102 1113 0
1 1102 1110 0
1 -1111 -788 0
1 1108 972 0
1 1112 -1102 0
1 986 987 0
1 -986 -822 0
1 -1114 1103 0
1 -994 992 0
1 1109 -1115 0
1 -1115 -1116 0
1 1115 994 0
1 980 -1117 0
1 1118 1119 0
1 1000 -1120 0
1 1121 1122 0
1 1121 -1001 0
1 -1122 -1000 0
1 1123 -1124 0
1 1120 1000 0
1 1120 1125 0
1 1120 1118 0
1 -1126 1116 0
1 1126 1127 0
1 -1126 -998 0
1 -1128 -1129 0
1 -1130 1127 0
1 -1124 -1130 0
1 -1124 1125 0
1 1124 -1123 0
1 1127 -1126 0
1 -1131 -1128 0
1 1131 -1121 0
1 -1024 -1025 0
1 1025 1013 0
1 1132 -1133 0
1 1134 -1135 0
1 1134 -1132 0
1 -1134 1136 0
1 -1137 1138 0
1 -1139 -1140 0
1 1136 1017 0
1 1136 -1030 0
1 1136 1015 0
1 1030 -1019 0
1 -1030 1136 0
1 1138 -1141 0
1 1138 1022 0
1 -1142 -1132 0
1 1142 -1143 0
1 -1142 1136 0
1 -1142 1023 0
1 1144 -1145 0
1 -1035 -1019 0
1 1035 -1022 0
1 1035 1029 0
1 1146 -1142 0
1 1040 -1147 0
1 -1148 1141 0
1 1141 -1148 0
1 1022 1141 0
1 1149 -1150 0
1 -1149 1035 0
1 1147 1151 0
1 -1152 1143 0
1 -1153 1154 0
1 1047 -1141 0
1 -1047 -1155 0
1 1047 -1022 0
1 -1047 -1156 0
1 -1157 -1158 0
1 -1157 -1155 0
1 -1154 -1044 0
1 -1159 -1019 0
1 -1159 -1047 0
1 -1159 -1160 0
1 1158 1160 0
1 1044 1037 0
1 -1161 1039 0
1 -1161 1162 0
1 1161 -1163 0
1 -1162 1164 0
1 -1156 -1165 0
1 -1156 -1166 0
1 1156 -1167 0
1 1168 -1169 0
1 1168 1160 0
1 -1155 -1169 0
1 1052 -1167 0
1 -1167 1054 0
1 -1057 1170 0
1 1057 -1171 0
1 -1164 1172 0
1 1171 -1173 0
1 1174 1052 0
1 1174 -1167 0
1 1175 1176 0
1 1173 1172 0
1 -1173 1063 0
1 -1060 1065 0
1 1067 1177 0
1 -1172 -1178 0
1 1172 1177 0
1 1172 -1060 0
1 -1170 1179 0
1 -1170 -1060 0
1 -1170 1164 0
1 -1180 -1177 0
1 -1181 1182 0
1 -1181 1183 0
1 -1184 1059 0
1 -1184 1065 0
1 1185 1186 0
1 -1185 -1058 0
1 -1187 -1188 0
1 1187 1189 0
1 1187 -1190 0
1 -1187 -1185 0
1 1191 1192 0
1 1191 -1187 0
1 -1058 -1193 0
1 1059 -1194 0
1 -1059 1195 0
1 1059 1196 0
1 1197 -1186 0
1 -1197 1187 0
1 1192 -1198 0
1 1199 968 0
1 1199 -1200 0
1 1201 -1091 0
1 -1201 1199 0
1 -1201 1189 0
1 -1202 -1192 0
1 1186 -1188 0
1 -1090 -1082 0
1 -1091 1071 0
1 -1091 -1188 0
1 1091 1075 0
1 -1203 1201 0
1 -1203 -1204 0
1 -1203 -1200 0
1 -1203 -1081 0
1 1205 1089 0
1 -1200 1090 0
1 1204 -1090 0
1 1075 1206 0
1 1075 1207 0
1 1075 -1090 0
1 -1208 981 0
1 1208 -1209 0
1 -1210 -1211 0
1 -1210 -1200 0
1 -1212 -1213 0
1 -1212 1081 0
1 1214 1205 0
1 -1081 1208 0
1 1215 1216 0
1 -1217 1205 0
1 1217 -1215 0
1 -1217 1218 0
1 -1099 -1086 0
1 -1099 1096 0
1 -1104 -1219 0
1 -1104 1220 0
1 1221 1105 0
1 1221 1222 0
1 -1221 1110 0
1 -1223 1224 0
1 1223 -1104 0
1 1220 -1089 0
1 1220 -1225 0
1 1222 1212 0
1 1222 1220 0
1 -1222 1226 0
1 -1227 -1228 0
1 1229 -1230 0
1 1229 -1231 0
1 -1229 -1232 0
1 -1233 -1227 0
1 1233 -1224 0
1 -1233 -1234 0
1 1097 -1117 0
1 1097 -1227 0
1 -1097 1229 0
1 -1097 -1221 0
1 -1230 1235 0
1 1230 -1221 0
1 1236 1237 0
1 1236 -1238 0
1 1117 1239 0
1 1240 -1241 0
1 -1240 1108 0
1 1240 -1102 0
1 -1240 1242 0
1 -1243 1234 0
1 1243 1240 0
1 -1242 1244 0
1 1242 -1245 0
1 -1242 1229 0
1 -1241 -1117 0
1 1116 1246 0
1 1116 1247 0
1 -1116 -1109 0
1 1248 1120 0
1 -1248 1243 0
1 -1125 1246 0
1 -1249 -1248 0
1 1246 1249 0
1 -1143 1250 0
1 1143 1251 0
1 -1145 1250 0
1 -1145 -1142 0
1 1150 1252 0
1 1150 1253 0
1 -1254 1151 0
1 -1253 1255 0
1 1140 1253 0
1 -1151 -1254 0
1 1256 -1257 0
1 -1258 -1158 0
1 1259 1150 0
1 -1259 1260 0
1 -1261 -1150 0
1 -1261 1256 0
1 -1262 -1263 0
1 -1262 -1252 0
1 -1257 1150 0
1 1257 -1264 0
1 1160 -1159 0
1 1160 1154 0
1 -1265 -1168 0
1 -1265 -1266 0
1 1169 1168 0
1 1267 1265 0
1 1268 -1265 0
1 1268 -1160 0
1 1269 1270 0
1 1269 1271 0
1 -1269 -1272 0
1 1273 -1264 0
1 1165 -1175 0
1 -1165 1274 0
1 -1165 -1275 0
1 -1166 1267 0
1 1166 1060 0
1 -1166 1266 0
1 1276 1277 0
1 -1276 1266 0
1 1277 -1278 0
1 1266 -1166 0
1 1274 1279 0
1 -1274 -1275 0
1 -1275 1280 0
1 1281 1266 0
1 1182 1281 0
1 1282 1283 0
1 -1284 1285 0
1 1284 -1286 0
1 1278 1277 0
1 -1278 -1156 0
1 -1287 1182 0
1 -1183 1170 0
1 1183 1172 0
1 1179 -1181 0
1 -1179 -1286 0
1 -1179 -1288 0
1 -1196 1288 0
1 -1196 -1083 0
1 1194 1278 0
1 1288 -1289 0
1 -1290 1291 0
1 1286 -1292 0
1 -1286 1163 0
1 1293 -1286 0
1 1195 1294 0
1 -1195 -1187 0
1 1188 -1295 0
1 1296 1203 0
1 -1296 1190 0
1 -1296 1295 0
1 -1291 1290 0
1 -1297 1298 0
1 1297 -1170 0
1 1297 1299 0
1 1300 1188 0
1 -1209 1295 0
1 1206 -1292 0
1 -1298 1301 0
1 1298 1302 0
1 -1303 -1219 0
1 -1303 1304 0
1 1193 -1291 0
1 -1305 1306 0
1 -1305 -1307 0
1 1308 -1219 0
1 -1308 1099 0
1 1308 -1307 0
1 -1219 1308 0
1 -1304 -1309 0
1 -1310 1298 0
1 1310 -1304 0
1 1218 -1220 0
1 -1226 1220 0
1 -1226 1218 0
1 -1311 1312 0
1 1313 -1314 0
1 -1313 1315 0
1 1316 1317 0
1 -1316 -1232 0
1 1235 -1316 0
1 -1237 1318 0
1 1237 -1311 0
1 1237 -1319 0
1 1312 -1319 0
1 -1320 -1321 0
1 1320 1312 0
1 -1322 1323 0
1 1322 1312 0
1 1322 1231 0
1 -1324 1325 0
1 1324 1326 0
1 -1324 -1323 0
1 1324 -1327 0
1 -1324 1235 0
1 -1321 -1236 0
1 -1321 1225 0
1 -1328 1230 0
1 -1329 1322 0
1 -1319 1328 0
1 1330 1321 0
1 1330 1312 0
1 1331 -1222 0
1 1271 -1332 0
1 -1270 1269 0
1 1332 -1333 0
1 -1334 -1271 0
1 -1279 1273 0
1 -1279 1275 0
1 1280 -1335 0
1 -1336 -1282 0
1 -1336 1263 0
1 -1336 -1334 0
1 -1336 1337 0
1 -1333 -1338 0
1 1333 -1337 0
1 -1335 1337 0
1 1263 -1339 0
1 -1338 -1340 0
1 1338 1257 0
1 -1341 -1335 0
1 1341 1274 0
1 -1342 1337 0
1 -1342 1343 0
1 -1342 1344 0
1 -1345 -1342 0
1 1346 -1347 0
1 -1348 1349 0
1 -1348 1342 0
1 1350 -1336 0
1 1343 -1351 0
1 -1352 1346 0
1 1352 -1353 0
1 -1354 -1355 0
1 -1354 -1356 0
1 -1354 1353 0
1 -1356 1354 0
1 -1356 -1353 0
1 -1357 -1358 0
1 -1357 1344 0
1 1344 1359 0
1 1344 -1345 0
1 1360 1345 0
1 1292 1290 0
1 -1292 1347 0
1 1292 1294 0
1 -1292 -1357 0
1 1292 1361 0
1 -1292 1300 0
1 1359 1357 0
1 -1355 1362 0
1 1355 1363 0
1 -1364 -1365 0
1 -1364 -1362 0
1 1366 1362 0
1 -1366 1283 0
1 -1307 -1308 0
1 1307 -1367 0
1 1306 1368 0
1 1369 -1368 0
1 -1369 -1289 0
1 -1370 1371 0
1 -1370 -1372 0
1 1373 1359 0
1 1371 -1374 0
1 -1371 -1375 0
1 1375 1309 0
1 1376 -1323 0
1 1376 -1309 0
1 1377 -1310 0
1 1377 1289 0
1 1377 -1378 0
1 1379 1306 0
1 1380 1371 0
1 1380 1381 0
1 -1382 1313 0
1 1383 -1301 0
1 1383 1384 0
1 -1383 1235 0
1 1383 -1372 0
1 -1318 -1385 0
1 -1314 1368 0
1 -1314 -1386 0
1 1386 -1376 0
1 1386 1314 0
1 -1386 1190 0
1 1387 -1326 0
1 -1378 1388 0
1 -1384 1378 0
1 1326 1389 0
1 1326 1390 0
1 1326 -1207 0
1 1327 1216 0
1 1327 1328 0
1 1327 -1207 0
1 1327 1391 0
1 -1325 1386 0
1 1392 -1390 0
1 1392 1324 0
1 -1389 1301 0
1 1393 1392 0
1 -1385 -1392 0
1 1385 -1314 0
1 1340 -1263 0
1 1351 1394 0
1 1395 1396 0
1 -1395 1397 0
1 -1394 -1347 0
1 -1398 -1399 0
1 1400 1401 0
1 1400 -1402 0
1 1400 -1360 0
1 1396 1360 0
1 -1403 1365 0
1 1403 -1335 0
1 1403 1347 0
1 1404 1396 0
1 1404 -1405 0
1 -1401 1406 0
1 -1401 1405 0
1 -1407 -1408 0
1 1358 -1403 0
1 -1409 1410 0
1 -1409 1404 0
1 -1411 1369 0
1 1411 1410 0
1 -1411 1364 0
1 1402 -1365 0
1 -1402 -1396 0
1 -1402 -1346 0
1 1402 1412 0
1 1349 -1402 0
1 -1349 -1363 0
1 -1413 -1414 0
1 -1413 1358 0
1 -1413 1415 0
1 1415 -1411 0
1 -1374 1361 0
1 -1363 1374 0
1 -1363 -1416 0
1 -1412 1417 0
1 1412 -1418 0
1 1412 -1419 0
1 -1420 1421 0
1 -1416 -1412 0
1 1410 1422 0
1 -1410 1374 0
1 -1423 -1372 0
1 -1423 -1289 0
1 1372 -1420 0
1 1424 1425 0
1 1426 1423 0
1 -1427 1423 0
1 -1417 1428 0
1 1391 -1429 0
1 1430 -1431 0
1 -1430 1378 0
1 -1432 -1426 0
1 1432 -1428 0
1 1429 -1433 0
1 -1429 1289 0
1 1434 1432 0
1 1435 1399 0
1 1435 -1436 0
1 1419 1406 0
1 -1419 -1436 0
1 -1419 1415 0
1 1437 1422 0
1 -1437 -1438 0
1 -1439 1440 0
1 1439 -1441 0
1 1439 1419 0
1 -1399 1436 0
1 1442 1423 0
1 1442 -1410 0
1 -1442 -1439 0
1 -1441 -1413 0
1 1441 -1415 0
1 1422 1443 0
1 1444 1403 0
1 1444 -1428 0
1 -1445 1421 0
1 -1421 1388 0
1 1421 1410 0
1 -1421 -1446 0
1 1421 -1416 0
1 1446 1416 0
1 -1431 -1430 0
1 1428 -1414 0
1 1428 -1427 0
1 -1447 -1422 0
1 1447 -1428 0
1 -1447 -1446 0
1 1447 1440 0
1 -1414 -1431 0
1 1414 1421 0
1 -1414 1413 0
1 1448 -1431 0
1 1448 -1422 0
1 1448 -1446 0
